NAME : block_11.598388.tour
COMMENT : Length = 598388
COMMENT : Found by LKH-3 [Keld Helsgaun] Mon Feb  2 23:11:34 2026
TYPE : TOUR
DIMENSION : 169
TOUR_SECTION
78
94
77
60
59
58
57
37
38
39
40
41
22
23
42
43
24
25
44
45
65
82
98
112
125
137
147
156
157
148
138
126
113
99
83
66
46
27
26
11
12
13
28
47
67
84
100
114
127
139
149
158
159
150
140
128
115
101
85
68
48
29
14
15
30
49
69
86
102
116
129
141
151
160
164
165
167
168
166
162
161
152
142
130
117
103
87
70
50
31
16
6
7
17
32
51
71
88
104
118
131
143
153
163
154
144
132
119
105
89
72
52
33
18
8
3
4
5
10
9
19
34
53
73
74
54
35
20
21
36
55
75
56
76
93
92
108
107
91
90
106
120
121
134
133
145
155
2
169
1
135
146
136
124
111
97
81
64
63
80
96
110
123
122
109
95
79
62
61
-1
EOF
